n_skills = 5;
n_workers = 6;
has_skills = [{2, 5}, {4}, {2, 3, 4}, {3, 4}, {2, 4, 5}, {1, 2, 4, 5}];
n_tasks = 14;
d = [2, 6, 1, 2, 1, 4, 2, 2, 2, 1, 2, 3, 3, 3];
rr = [| 0, 0, 0, 0, 0, 0, 0, 0, 0, 0, 0, 0, 1, 0
      | 1, 0, 0, 0, 1, 1, 1, 0, 2, 2, 1, 1, 0, 0
      | 0, 0, 0, 0, 0, 1, 0, 0, 0, 0, 1, 0, 0, 1
      | 1, 1, 0, 1, 1, 0, 1, 0, 0, 0, 0, 1, 1, 1
      | 0, 0, 2, 0, 0, 0, 0, 1, 0, 0, 0, 0, 0, 0 |];
suc = [{5, 6, 8}, {6, 7}, {4, 6, 12}, {13, 14}, {11, 12, 13}, {9, 11}, {9, 10}, {10}, {14}, {11, 12, 13}, {14}, {}, {}, {}];


maxMakeSpan = 17;

% 1.) Work with some other agent
workTogether =   [{1,2}, {3,4}, {1,3}, {2,4,6}];
scWorkTogether = [    1,     2,     3,       4];

% 2.) Do not work with other agent
workNotTogether =   [{1,4}, {2,3}, {1,5}];
scWorkNotTogether = [    5,     6,     7];

% 3.) Work on certain task preferably
desiredTaskWorkers = [2,   3,  4,  6];
desiredTasks =       [14,  3,  4,  2];
scDesireds =         [ 8,  9, 10, 11];

% 4.) Do not work on a certain task preferably  
avoidedTaskWorkers = [1,   1,  6];
avoidedTasks =       [2,   3, 12];
scAvoideds =         [12, 13, 14];

crTempEdges = [| 3, 1 |
                 2, 3 |
                 2, 4 |
                 4, 1 |
                 1, 6 |
                 1, 7 |
                 8, 3 |
                10, 4 |
                12, 4 |
                13, 1 |
                13, 14 |
                11, 13 |];
